ilp_joint_2/output/mimicry_ilp.lp
Maximize
  1.0994084811671856e-04 Z_9_1_0 + 0.052972098922053 Z_9_1_1
   + 0.3277735792720619 Z_9_1_2 + 0.00459082908170128 Z_9_1_3
Subject To
 constraint1_91: Z_9_1_0 + Z_9_1_1 + Z_9_1_2 + Z_9_1_3 <= 1
 constraint2_90: Z_9_1_0 <= 1
 constraint2_91: Z_9_1_1 <= 1
 constraint2_92: Z_9_1_2 <= 1
 constraint2_93: Z_9_1_3 <= 1
Bounds
Binaries
 Z_9_1_0 Z_9_1_1 Z_9_1_2 Z_9_1_3
End
