ilp_joint_2/output/mimicry_ilp.mps
NAME mimicry_srl_ilp
* Max problem is converted into Min one
ROWS
 N  OBJ
 L  constraint1_91
 L  constraint2_90
 L  constraint2_91
 L  constraint2_92
 L  constraint2_93
COLUMNS
    MARKER    'MARKER'                 'INTORG'
    Z_9_1_0   OBJ       -1.0994084811671856e-04
    Z_9_1_0   constraint1_91  1
    Z_9_1_0   constraint2_90  1
    Z_9_1_1   OBJ       -5.2972098922053013e-02
    Z_9_1_1   constraint1_91  1
    Z_9_1_1   constraint2_91  1
    Z_9_1_2   OBJ       -3.2777357927206185e-01
    Z_9_1_2   constraint1_91  1
    Z_9_1_2   constraint2_92  1
    Z_9_1_3   OBJ       -4.5908290817012849e-03
    Z_9_1_3   constraint1_91  1
    Z_9_1_3   constraint2_93  1
    MARKER    'MARKER'                 'INTEND'
RHS
    RHS1      constraint1_91  1
    RHS1      constraint2_90  1
    RHS1      constraint2_91  1
    RHS1      constraint2_92  1
    RHS1      constraint2_93  1
BOUNDS
 UP BND1      Z_9_1_0   1
 UP BND1      Z_9_1_1   1
 UP BND1      Z_9_1_2   1
 UP BND1      Z_9_1_3   1
ENDATA
