ilp_joint_2/output/mimicry_ilp.sol
# Solution for model mimicry_srl_ilp
# Objective value = 3.2777357927206185e-01
Z_9_1_0 0
Z_9_1_1 0
Z_9_1_2 1
Z_9_1_3 0
